row=11;
column=11;
Board=[|-1,1,0,0,-1,0,-1,-1,0,-1,0|-1,1,0,0,1,1,0,0,1,-1,-1|-1,-1,1,1,-1,-1,1,-1,0,-1,1|1,0,0,1,-1,0,1,-1,0,1,0|-1,-1,-1,0,-1,-1,-1,0,1,0,-1|-1,-1,-1,-1,-1,-1,1,-1,-1,1,0|1,-1,-1,-1,1,-1,0,1,1,-1,-1|0,0,1,-1,0,-1,-1,-1,1,-1,1|1,0,0,-1,0,1,-1,0,0,1,0|0,1,0,0,-1,-1,0,1,-1,1,-1|0,0,1,-1,0,-1,0,1,-1,0,-1|];
